n = 32;
lu = [|-339, -69
      |111, 937
      |-261, 290
      |799, 946
      |-735, 131
      |210, 670
      |242, 1008
      |-809, 721
      |124, 284
      |-544, -18
      |-795, 283
      |-151, 141
      |-753, 474
      |-520, 293
      |-30, 93
      |-998, 287
      |222, 425
      |569, 590
      |-574, -265
      |-890, 469
      |-765, -517
      |-642, -414
      |-534, 272
      |-1012, -789
      |104, 655
      |-193, 402
      |-235, 567
      |851, 915
      |442, 836
      |237, 967
      |-985, -737
      |531, 946|];
